NAME : rc202.2.8537075.tour
COMMENT : Length = 8537075
COMMENT : Found by LKH [Keld Helsgaun] Tue May  2 05:49:38 2017
TYPE : TOUR
DIMENSION : 28
TOUR_SECTION
1
13
9
12
2
15
4
3
11
14
10
19
22
25
27
23
24
5
16
17
26
6
7
21
8
18
20
28
-1
EOF
